40 390 
1 2 1
1 3 1
1 5 1
1 10 1
1 12 1
1 13 1
1 19 1
1 21 1
1 22 1
1 24 1
1 26 1
1 27 1
1 28 1
1 29 1
1 31 1
1 35 1
1 37 1
2 3 1
2 4 1
2 11 1
2 13 1
2 14 1
2 20 1
2 21 1
2 22 1
2 25 1
2 26 1
2 28 1
2 29 1
2 31 1
2 32 1
2 33 1
2 35 1
2 37 1
2 38 1
3 5 1
3 6 1
3 8 1
3 9 1
3 11 1
3 12 1
3 13 1
3 16 1
3 17 1
3 18 1
3 19 1
3 20 1
3 21 1
3 22 1
3 23 1
3 25 1
3 26 1
3 27 1
3 28 1
3 30 1
3 37 1
3 38 1
4 5 1
4 7 1
4 9 1
4 10 1
4 11 1
4 12 1
4 13 1
4 15 1
4 18 1
4 19 1
4 20 1
4 21 1
4 24 1
4 27 1
4 29 1
4 30 1
4 31 1
4 32 1
4 33 1
4 34 1
4 35 1
4 36 1
4 37 1
4 38 1
5 6 1
5 9 1
5 11 1
5 12 1
5 13 1
5 15 1
5 17 1
5 20 1
5 23 1
5 25 1
5 27 1
5 28 1
5 30 1
5 31 1
5 32 1
5 33 1
5 35 1
5 38 1
5 39 1
6 8 1
6 14 1
6 17 1
6 18 1
6 19 1
6 23 1
6 24 1
6 26 1
6 27 1
6 28 1
6 30 1
6 32 1
6 33 1
6 34 1
6 36 1
6 37 1
7 8 1
7 9 1
7 10 1
7 11 1
7 12 1
7 13 1
7 17 1
7 18 1
7 20 1
7 21 1
7 22 1
7 24 1
7 27 1
7 29 1
7 31 1
7 33 1
7 34 1
7 35 1
7 37 1
7 38 1
7 40 1
8 10 1
8 11 1
8 12 1
8 13 1
8 14 1
8 15 1
8 16 1
8 17 1
8 18 1
8 26 1
8 32 1
8 33 1
8 35 1
8 38 1
9 11 1
9 15 1
9 17 1
9 18 1
9 19 1
9 23 1
9 25 1
9 29 1
9 33 1
9 34 1
9 35 1
9 37 1
9 38 1
9 39 1
10 11 1
10 12 1
10 13 1
10 16 1
10 19 1
10 23 1
10 24 1
10 26 1
10 29 1
10 30 1
10 32 1
10 33 1
10 34 1
10 37 1
10 38 1
10 39 1
10 40 1
11 12 1
11 14 1
11 15 1
11 16 1
11 17 1
11 19 1
11 22 1
11 25 1
11 28 1
11 31 1
11 33 1
11 34 1
11 35 1
11 36 1
11 38 1
11 40 1
12 18 1
12 21 1
12 27 1
12 29 1
12 32 1
12 36 1
13 14 1
13 17 1
13 19 1
13 21 1
13 22 1
13 23 1
13 26 1
13 30 1
13 31 1
13 33 1
13 34 1
13 35 1
13 36 1
13 38 1
14 17 1
14 18 1
14 19 1
14 23 1
14 24 1
14 25 1
14 29 1
14 30 1
14 33 1
14 34 1
14 35 1
14 36 1
14 37 1
14 38 1
15 17 1
15 19 1
15 22 1
15 24 1
15 25 1
15 26 1
15 27 1
15 34 1
15 35 1
15 36 1
15 38 1
15 39 1
15 40 1
16 20 1
16 22 1
16 25 1
16 39 1
17 19 1
17 21 1
17 22 1
17 23 1
17 25 1
17 27 1
17 33 1
17 34 1
17 35 1
17 40 1
18 20 1
18 28 1
18 32 1
18 34 1
18 35 1
18 36 1
18 38 1
18 40 1
19 25 1
19 26 1
19 28 1
19 30 1
19 33 1
19 34 1
19 37 1
19 38 1
20 21 1
20 22 1
20 25 1
20 26 1
20 27 1
20 28 1
20 29 1
20 30 1
20 31 1
20 32 1
20 35 1
20 37 1
20 38 1
20 39 1
20 40 1
21 24 1
21 26 1
21 27 1
21 28 1
21 30 1
21 31 1
21 35 1
21 36 1
21 37 1
21 38 1
22 27 1
22 29 1
22 31 1
22 35 1
22 37 1
22 38 1
22 39 1
22 40 1
23 24 1
23 25 1
23 26 1
23 27 1
23 29 1
23 31 1
23 34 1
23 36 1
23 37 1
23 38 1
23 39 1
24 26 1
24 27 1
24 30 1
24 32 1
24 33 1
24 34 1
24 37 1
24 38 1
24 39 1
25 26 1
25 27 1
25 28 1
25 31 1
25 35 1
25 36 1
25 37 1
25 38 1
25 39 1
25 40 1
26 29 1
26 31 1
26 32 1
26 38 1
26 40 1
27 28 1
27 29 1
27 30 1
27 32 1
27 35 1
27 36 1
27 37 1
27 40 1
28 32 1
28 33 1
28 35 1
28 36 1
28 39 1
28 40 1
29 31 1
29 33 1
29 35 1
29 36 1
29 40 1
30 31 1
30 32 1
30 34 1
30 35 1
31 32 1
31 33 1
31 35 1
31 36 1
31 37 1
31 38 1
31 40 1
32 33 1
32 35 1
32 36 1
32 37 1
32 39 1
32 40 1
33 35 1
33 37 1
34 35 1
34 38 1
35 36 1
35 37 1
35 39 1
36 38 1
36 39 1
36 40 1
37 40 1
